
Gurobi 10.0.0 (mac64[arm]) logging started Tue Jul 18 11:25:01 2023

Set parameter LogFile to value "octilinearBusRouting.log"
Set parameter MIPGap to value 0.02
Set parameter MIPGapAbs to value 0.02
Set parameter TimeLimit to value 36000
Gurobi Optimizer version 10.0.0 build v10.0.0rc2 (mac64[arm])

CPU model: Apple M1
Thread count: 8 physical cores, 8 logical processors, using up to 8 threads

Optimize a model with 4288 rows, 3365 columns and 13238 nonzeros
Model fingerprint: 0xdf8d5d82
Model has 522 general constraints
Variable types: 0 continuous, 3365 integer (1728 binary)
Coefficient statistics:
  Matrix range     [1e+00, 1e+05]
  Objective range  [1e+00, 1e+00]
  Bounds range     [1e+00, 1e+05]
  RHS range        [1e+00, 1e+05]
Presolve removed 3134 rows and 2791 columns
Presolve time: 0.03s
Presolved: 1154 rows, 574 columns, 3878 nonzeros
Variable types: 0 continuous, 574 integer (397 binary)
Found heuristic solution: objective 17893.713191
Found heuristic solution: objective 11939.862977

Root relaxation: objective 0.000000e+00, 425 iterations, 0.01 seconds (0.00 work units)

    Nodes    |    Current Node    |     Objective Bounds      |     Work
 Expl Unexpl |  Obj  Depth IntInf | Incumbent    BestBd   Gap | It/Node Time

     0     0    0.00000    0   26 11939.8630    0.00000   100%     -    0s
H    0     0                    11449.130870    0.00000   100%     -    0s
     0     0 1770.29748    0  292 11449.1309 1770.29748  84.5%     -    0s
H    0     0                    10344.360959 1770.29748  82.9%     -    0s
H    0     0                    9673.8979721 1770.29748  81.7%     -    0s
     0     0 1892.32374    0  284 9673.89797 1892.32374  80.4%     -    0s
H    0     0                    9107.0818870 1892.32374  79.2%     -    0s
     0     0 3134.08225    0   94 9107.08189 3134.08225  65.6%     -    0s
H    0     0                    8718.1731573 3134.08225  64.1%     -    0s
H    0     0                    7969.1087246 3401.85550  57.3%     -    0s
     0     0 3401.85550    0  105 7969.10872 3401.85550  57.3%     -    0s
     0     0 3401.85550    0  111 7969.10872 3401.85550  57.3%     -    0s
     0     0 3422.08259    0  122 7969.10872 3422.08259  57.1%     -    0s
H    0     0                    6009.0087271 3422.08259  43.1%     -    0s
     0     0 3422.08259    0  122 6009.00873 3422.08259  43.1%     -    0s
H    0     0                    5931.4717139 3422.08259  42.3%     -    0s
     0     0 3428.19784    0  160 5931.47171 3428.19784  42.2%     -    0s
     0     0 3431.31821    0  169 5931.47171 3431.31821  42.2%     -    0s
     0     0 3431.31821    0  165 5931.47171 3431.31821  42.2%     -    0s
     0     0 3431.31821    0  174 5931.47171 3431.31821  42.2%     -    0s
     0     0 3431.31821    0  142 5931.47171 3431.31821  42.2%     -    0s
     0     2 3431.32879    0  142 5931.47171 3431.32879  42.2%     -    0s
H   37    40                    5924.4300833 3540.36931  40.2%  26.2    0s
H   66    80                    5886.7366492 3540.39476  39.9%  19.7    0s
H   68    80                    5863.7366492 3540.39476  39.6%  20.1    0s
H   70    80                    5825.0188284 3540.39476  39.2%  19.5    0s
H   78    80                    5608.2370824 3540.39476  36.9%  18.6    0s
H  120   139                    5165.7963902 3540.39476  31.5%  21.9    0s
H  125   139                    5106.3994206 3540.39476  30.7%  22.2    0s
H 1488   833                    5074.9385258 4761.66544  6.17%  20.4    0s
H 1491   793                    5074.7669530 4776.64879  5.87%  20.3    1s
H 1495   755                    5055.1416280 4777.52577  5.49%  20.3    1s

Cutting planes:
  Learned: 5
  Gomory: 10
  Cover: 1
  Implied bound: 3
  MIR: 5
  StrongCG: 2
  Flow cover: 29
  Zero half: 1
  RLT: 5
  Relax-and-lift: 2

Explored 1553 nodes (42671 simplex iterations) in 2.17 seconds (1.77 work units)
Thread count was 8 (of 8 available processors)

Solution count 10: 5055.14 5074.77 5074.94 ... 5924.43

Optimal solution found (tolerance 2.00e-02)
Best objective 5.055141628009e+03, best bound 4.977731555918e+03, gap 1.5313%
Warning: general constraint 4291 and general constraint 4296 have the same name "v0->v1_o1_enter->leaveabsX"

Gurobi 10.0.0 (mac64[arm]) logging started Tue Jul 18 11:25:07 2023

Set parameter LogFile to value "octilinearBusRouting.log"
Set parameter MIPGap to value 0.02
Set parameter MIPGapAbs to value 0.02
Set parameter TimeLimit to value 36000
Gurobi Optimizer version 10.0.0 build v10.0.0rc2 (mac64[arm])

CPU model: Apple M1
Thread count: 8 physical cores, 8 logical processors, using up to 8 threads

Optimize a model with 4288 rows, 3365 columns and 13238 nonzeros
Model fingerprint: 0xdf8d5d82
Model has 522 general constraints
Variable types: 0 continuous, 3365 integer (1728 binary)
Coefficient statistics:
  Matrix range     [1e+00, 1e+05]
  Objective range  [1e+00, 1e+00]
  Bounds range     [1e+00, 1e+05]
  RHS range        [1e+00, 1e+05]
Presolve removed 3134 rows and 2791 columns
Presolve time: 0.03s
Presolved: 1154 rows, 574 columns, 3878 nonzeros
Variable types: 0 continuous, 574 integer (397 binary)
Found heuristic solution: objective 17893.713191
Found heuristic solution: objective 11939.862977

Root relaxation: objective 0.000000e+00, 425 iterations, 0.01 seconds (0.00 work units)

    Nodes    |    Current Node    |     Objective Bounds      |     Work
 Expl Unexpl |  Obj  Depth IntInf | Incumbent    BestBd   Gap | It/Node Time

     0     0    0.00000    0   26 11939.8630    0.00000   100%     -    0s
H    0     0                    11449.130870    0.00000   100%     -    0s
     0     0 1770.29748    0  292 11449.1309 1770.29748  84.5%     -    0s
H    0     0                    10344.360959 1770.29748  82.9%     -    0s
H    0     0                    9673.8979721 1770.29748  81.7%     -    0s
     0     0 1892.32374    0  284 9673.89797 1892.32374  80.4%     -    0s
H    0     0                    9107.0818870 1892.32374  79.2%     -    0s
     0     0 3134.08225    0   94 9107.08189 3134.08225  65.6%     -    0s
H    0     0                    8718.1731573 3134.08225  64.1%     -    0s
H    0     0                    7969.1087246 3401.85550  57.3%     -    0s
     0     0 3401.85550    0  105 7969.10872 3401.85550  57.3%     -    0s
     0     0 3401.85550    0  111 7969.10872 3401.85550  57.3%     -    0s
     0     0 3422.08259    0  122 7969.10872 3422.08259  57.1%     -    0s
H    0     0                    6009.0087271 3422.08259  43.1%     -    0s
     0     0 3422.08259    0  122 6009.00873 3422.08259  43.1%     -    0s
H    0     0                    5931.4717139 3422.08259  42.3%     -    0s
     0     0 3428.19784    0  160 5931.47171 3428.19784  42.2%     -    0s
     0     0 3431.31821    0  169 5931.47171 3431.31821  42.2%     -    0s
     0     0 3431.31821    0  165 5931.47171 3431.31821  42.2%     -    0s
     0     0 3431.31821    0  174 5931.47171 3431.31821  42.2%     -    0s
     0     0 3431.31821    0  142 5931.47171 3431.31821  42.2%     -    0s
     0     2 3431.32879    0  142 5931.47171 3431.32879  42.2%     -    0s
H   37    40                    5924.4300833 3540.36931  40.2%  26.2    0s
H   66    80                    5886.7366492 3540.39476  39.9%  19.7    0s
H   68    80                    5863.7366492 3540.39476  39.6%  20.1    0s
H   70    80                    5825.0188284 3540.39476  39.2%  19.5    0s
H   78    80                    5608.2370824 3540.39476  36.9%  18.6    0s
H  120   139                    5165.7963902 3540.39476  31.5%  21.9    0s
H  125   139                    5106.3994206 3540.39476  30.7%  22.2    0s
H 1488   833                    5074.9385258 4761.66544  6.17%  20.4    1s
H 1491   793                    5074.7669530 4776.64879  5.87%  20.3    1s
H 1495   755                    5055.1416280 4777.52577  5.49%  20.3    1s

Cutting planes:
  Learned: 5
  Gomory: 10
  Cover: 1
  Implied bound: 3
  MIR: 5
  StrongCG: 2
  Flow cover: 29
  Zero half: 1
  RLT: 5
  Relax-and-lift: 2

Explored 1553 nodes (42671 simplex iterations) in 2.37 seconds (1.77 work units)
Thread count was 8 (of 8 available processors)

Solution count 10: 5055.14 5074.77 5074.94 ... 5924.43

Optimal solution found (tolerance 2.00e-02)
Best objective 5.055141628009e+03, best bound 4.977731555918e+03, gap 1.5313%
Warning: general constraint 4291 and general constraint 4296 have the same name "v0->v1_o1_enter->leaveabsX"
